\ LP format - for model browsing. Use MPS format to capture full model detail.
Minimize
  0 B45(0) + 0 B46(0) + 0 B50(0) + 0 B60(0) + 0 B61(0) + 0 B77(0) + 0 B82(0)
   + 0 B87(0) + 0 B90(0) + 0 B91(0) + 0 B92(0) + 0 B93(0) + 0 B105(0)
   + 0 B106(0) + 0 B107(0) + 0 B109(0) + 0 B113(0) + 0 B120(0) + 0 B121(0)
   + 0 B122(0) + 0 B125(0) + 0 B133(0) + 0 B135(0) + 0 B136(0) + 0 B137(0)
   + 0 B138(0) + 0 B139(0) + 0 B140(0) + 0 B141(0) + 0 B150(0) + 0 B151(0)
   + 0 B152(0) + 0 B153(0) + 0 B154(0) + 0 B155(0) + 0 B157(0) + 0 B161(0)
   + 0 B165(0) + 0 B166(0) + 0 B167(0) + 0 B168(0) + 0 B169(0) + 0 B170(0)
   + 0 B173(0) + 0 B180(0) + 0 B181(0) + 0 B182(0) + 0 B183(0) + 0 B184(0)
   + 0 B185(0) + 0 B186(0) + 0 B187(0) + 0 B188(0) + 0 B189(0) + 0 B190(0)
   + 0 B195(0) + 0 B196(0) + 0 B197(0) + 0 B198(0) + 0 B199(0) + 0 B200(0)
   + 0 B201(0) + 0 B202(0) + 0 B203(0) + 0 B204(0) + 0 B205(0) + 0 B210(0)
   + 0 B211(0) + 0 B212(0) + 0 B213(0) + 0 B214(0) + 0 B215(0) + 0 B216(0)
   + 0 B217(0) + 0 B218(0) + 0 B221(0) + 0 B222(0) + 0 B225(0) + 0 B226(0)
   + 0 B227(0) + 0 B228(0) + 0 B229(0) + 0 B230(0) + 0 B231(0) + 0 B232(0)
   + 0 B233(0) + 0 B234(0) + 0 B235(0) + 0 B236(0) + 0 B237(0) + 0 B240(0)
   + 0 B241(0) + 0 B242(0) + 0 B243(0) + 0 B244(0) + 0 B245(0) + 0 B246(0)
   + 0 B247(0) + 0 B248(0) + 0 B249(0) + 0 B250(0) + 0 B251(0) + 0 B253(0)
   + 0 B255(0) + 0 B256(0) + 0 B257(0) + 0 B258(0) + 0 B259(0) + 0 B260(0)
   + 0 B261(0) + 0 B262(0) + 0 B263(0) + 0 B264(0) + 0 B265(0) + 0 B266(0)
   + 0 B269(0) + I315(1)
Subject To
 c0: B0(16) + B1(14) + B2(18) = 1
 c1: B3(10) + B4(22) + B5(20) = 1
 c2: B6(21) + B7(15) + B8(17) = 1
 c3: B9(22) + B10(14) + B11(22) = 1
 c4: B12(12) + B13(22) + B14(16) = 1
 c5: B15(10) + B16(12) + B17(22) = 1
 c6: B18(22) + B19(22) + B20(16) = 1
 c7: B21(9) + B22(21) + B23(15) = 1
 c8: B24(10) + B25(22) + B26(16) = 1
 c9: B27(21) + B28(13) + B29(17) = 1
 c10: B30(10) + B31(16) + B32(20) = 1
 c11: B33(22) + B34(16) + B35(18) = 1
 c12: B36(10) + B37(24) + B38(16) = 1
 c13: B39(13) + B40(23) + B41(15) = 1
 c14: B42(19) + B43(23) + B44(15) = 1
 c15: - 1e+06 B0(16) + C270(17) <= 0
 c16: - 1e+06 B1(14) + C271(15) <= 0
 c17: - 1e+06 B2(18) + C272(19) <= 0
 c18: - 1e+06 B3(10) + C273(11) <= 0
 c19: - 1e+06 B4(22) + C274(23) <= 0
 c20: - 1e+06 B5(20) + C275(21) <= 0
 c21: - 1e+06 B6(21) + C276(22) <= 0
 c22: - 1e+06 B7(15) + C277(16) <= 0
 c23: - 1e+06 B8(17) + C278(18) <= 0
 c24: - 1e+06 B9(22) + C279(23) <= 0
 c25: - 1e+06 B10(14) + C280(15) <= 0
 c26: - 1e+06 B11(22) + C281(23) <= 0
 c27: - 1e+06 B12(12) + C282(12) <= 0
 c28: - 1e+06 B13(22) + C283(22) <= 0
 c29: - 1e+06 B14(16) + C284(16) <= 0
 c30: - 1e+06 B15(10) + C285(11) <= 0
 c31: - 1e+06 B16(12) + C286(13) <= 0
 c32: - 1e+06 B17(22) + C287(23) <= 0
 c33: - 1e+06 B18(22) + C288(23) <= 0
 c34: - 1e+06 B19(22) + C289(23) <= 0
 c35: - 1e+06 B20(16) + C290(17) <= 0
 c36: - 1e+06 B21(9) + C291(11) <= 0
 c37: - 1e+06 B22(21) + C292(23) <= 0
 c38: - 1e+06 B23(15) + C293(17) <= 0
 c39: - 1e+06 B24(10) + C294(10) <= 0
 c40: - 1e+06 B25(22) + C295(22) <= 0
 c41: - 1e+06 B26(16) + C296(16) <= 0
 c42: - 1e+06 B27(21) + C297(23) <= 0
 c43: - 1e+06 B28(13) + C298(15) <= 0
 c44: - 1e+06 B29(17) + C299(19) <= 0
 c45: - 1e+06 B30(10) + C300(11) <= 0
 c46: - 1e+06 B31(16) + C301(17) <= 0
 c47: - 1e+06 B32(20) + C302(21) <= 0
 c48: - 1e+06 B33(22) + C303(22) <= 0
 c49: - 1e+06 B34(16) + C304(16) <= 0
 c50: - 1e+06 B35(18) + C305(18) <= 0
 c51: - 1e+06 B36(10) + C306(11) <= 0
 c52: - 1e+06 B37(24) + C307(25) <= 0
 c53: - 1e+06 B38(16) + C308(17) <= 0
 c54: - 1e+06 B39(13) + C309(15) <= 0
 c55: - 1e+06 B40(23) + C310(25) <= 0
 c56: - 1e+06 B41(15) + C311(17) <= 0
 c57: - 1e+06 B42(19) + C312(20) <= 0
 c58: - 1e+06 B43(23) + C313(24) <= 0
 c59: - 1e+06 B44(15) + C314(16) <= 0
 c60: - 1e+06 B0(16) - 1e+06 B7(15) - 1e+06 B47(4) + C270(17) - C277(16)
   >= -2.999976e+06
 c61: - 1e+06 B0(16) - 1e+06 B7(15) + 1e+06 B47(4) - C270(17) + C277(16)
   >= -1.999978e+06
 c62: - 1e+06 B2(18) - 1e+06 B8(17) - 1e+06 B47(4) + C272(19) - C278(18)
   >= -2.999982e+06
 c63: - 1e+06 B2(18) - 1e+06 B8(17) + 1e+06 B47(4) - C272(19) + C278(18)
   >= -1.999978e+06
 c64: - 1e+06 B0(16) - 1e+06 B10(14) - 1e+06 B48(2) + C270(17) - C280(15)
   >= -2.999989e+06
 c65: - 1e+06 B0(16) - 1e+06 B10(14) + 1e+06 B48(2) - C270(17) + C280(15)
   >= -1.999992e+06
 c66: - 1e+06 B2(18) - 1e+06 B14(16) - 1e+06 B49(2) + C272(19) - C284(16)
   >= -2.999993e+06
 c67: - 1e+06 B2(18) - 1e+06 B14(16) + 1e+06 B49(2) - C272(19) + C284(16)
   >= -1.999992e+06
 c68: - 1e+06 B2(18) - 1e+06 B20(16) - 1e+06 B51(2) + C272(19) - C290(17)
   >= -2.999988e+06
 c69: - 1e+06 B2(18) - 1e+06 B20(16) + 1e+06 B51(2) - C272(19) + C290(17)
   >= -1.999982e+06
 c70: - 1e+06 B1(14) - 1e+06 B23(15) - 1e+06 B52(2) + C271(15) - C293(17)
   >= -2.999981e+06
 c71: - 1e+06 B1(14) - 1e+06 B23(15) + 1e+06 B52(2) - C271(15) + C293(17)
   >= -1.999992e+06
 c72: - 1e+06 B1(14) - 1e+06 B26(16) - 1e+06 B53(2) + C271(15) - C296(16)
   >= -2.99998e+06
 c73: - 1e+06 B1(14) - 1e+06 B26(16) + 1e+06 B53(2) - C271(15) + C296(16)
   >= -1.999994e+06
 c74: - 1e+06 B1(14) - 1e+06 B28(13) - 1e+06 B54(4) + C271(15) - C298(15)
   >= -2.99997e+06
 c75: - 1e+06 B1(14) - 1e+06 B28(13) + 1e+06 B54(4) - C271(15) + C298(15)
   >= -1.999995e+06
 c76: - 1e+06 B2(18) - 1e+06 B29(17) - 1e+06 B54(4) + C272(19) - C299(19)
   >= -2.999978e+06
 c77: - 1e+06 B2(18) - 1e+06 B29(17) + 1e+06 B54(4) - C272(19) + C299(19)
   >= -1.999989e+06
 c78: - 1e+06 B0(16) - 1e+06 B31(16) - 1e+06 B55(2) + C270(17) - C301(17)
   >= -2.999994e+06
 c79: - 1e+06 B0(16) - 1e+06 B31(16) + 1e+06 B55(2) - C270(17) + C301(17)
   >= -1.999983e+06
 c80: - 1e+06 B0(16) - 1e+06 B34(16) - 1e+06 B56(4) + C270(17) - C304(16)
   >= -2.999991e+06
 c81: - 1e+06 B0(16) - 1e+06 B34(16) + 1e+06 B56(4) - C270(17) + C304(16)
   >= -1.999996e+06
 c82: - 1e+06 B2(18) - 1e+06 B35(18) - 1e+06 B56(4) + C272(19) - C305(18)
   >= -2.999983e+06
 c83: - 1e+06 B2(18) - 1e+06 B35(18) + 1e+06 B56(4) - C272(19) + C305(18)
   >= -1.999992e+06
 c84: - 1e+06 B1(14) - 1e+06 B38(16) - 1e+06 B57(2) + C271(15) - C308(17)
   >= -2.999983e+06
 c85: - 1e+06 B1(14) - 1e+06 B38(16) + 1e+06 B57(2) - C271(15) + C308(17)
   >= -1.999996e+06
 c86: - 1e+06 B0(16) - 1e+06 B39(13) - 1e+06 B58(4) + C270(17) - C309(15)
   >= -2.999994e+06
 c87: - 1e+06 B0(16) - 1e+06 B39(13) + 1e+06 B58(4) - C270(17) + C309(15)
   >= -1.999996e+06
 c88: - 1e+06 B1(14) - 1e+06 B41(15) - 1e+06 B58(4) + C271(15) - C311(17)
   >= -2.999977e+06
 c89: - 1e+06 B1(14) - 1e+06 B41(15) + 1e+06 B58(4) - C271(15) + C311(17)
   >= -1.999994e+06
 c90: - 1e+06 B2(18) - 1e+06 B44(15) - 1e+06 B59(2) + C272(19) - C314(16)
   >= -2.999973e+06
 c91: - 1e+06 B2(18) - 1e+06 B44(15) + 1e+06 B59(2) - C272(19) + C314(16)
   >= -1.99999e+06
 c92: - 1e+06 B4(22) - 1e+06 B6(21) - 1e+06 B62(2) + C274(23) - C276(22)
   >= -2.999987e+06
 c93: - 1e+06 B4(22) - 1e+06 B6(21) + 1e+06 B62(2) - C274(23) + C276(22)
   >= -1.999993e+06
 c94: - 1e+06 B4(22) - 1e+06 B9(22) - 1e+06 B63(4) + C274(23) - C279(23)
   >= -2.999977e+06
 c95: - 1e+06 B4(22) - 1e+06 B9(22) + 1e+06 B63(4) - C274(23) + C279(23)
   >= -1.999994e+06
 c96: - 1e+06 B5(20) - 1e+06 B11(22) - 1e+06 B63(4) + C275(21) - C281(23)
   >= -2.999987e+06
 c97: - 1e+06 B5(20) - 1e+06 B11(22) + 1e+06 B63(4) - C275(21) + C281(23)
   >= -1.99999e+06
 c98: - 1e+06 B5(20) - 1e+06 B13(22) - 1e+06 B64(2) + C275(21) - C283(22)
   >= -2.999989e+06
 c99: - 1e+06 B5(20) - 1e+06 B13(22) + 1e+06 B64(2) - C275(21) + C283(22)
   >= -1.999985e+06
 c100: - 1e+06 B3(10) - 1e+06 B15(10) - 1e+06 B65(4) + C273(11) - C285(11)
   >= -2.999984e+06
 c101: - 1e+06 B3(10) - 1e+06 B15(10) + 1e+06 B65(4) - C273(11) + C285(11)
   >= -1.999989e+06
 c102: - 1e+06 B4(22) - 1e+06 B17(22) - 1e+06 B65(4) + C274(23) - C287(23)
   >= -2.999994e+06
 c103: - 1e+06 B4(22) - 1e+06 B17(22) + 1e+06 B65(4) - C274(23) + C287(23)
   >= -1.999994e+06
 c104: - 1e+06 B4(22) - 1e+06 B18(22) - 1e+06 B66(4) + C274(23) - C288(23)
   >= -2.999993e+06
 c105: - 1e+06 B4(22) - 1e+06 B18(22) + 1e+06 B66(4) - C274(23) + C288(23)
   >= -1.999986e+06
 c106: - 1e+06 B5(20) - 1e+06 B19(22) - 1e+06 B66(4) + C275(21) - C289(23)
   >= -2.999975e+06
 c107: - 1e+06 B5(20) - 1e+06 B19(22) + 1e+06 B66(4) - C275(21) + C289(23)
   >= -1.999983e+06
 c108: - 1e+06 B5(20) - 1e+06 B22(21) - 1e+06 B67(2) + C275(21) - C292(23)
   >= -2.999994e+06
 c109: - 1e+06 B5(20) - 1e+06 B22(21) + 1e+06 B67(2) - C275(21) + C292(23)
   >= -1.99999e+06
 c110: - 1e+06 B3(10) - 1e+06 B24(10) - 1e+06 B68(4) + C273(11) - C294(10)
   >= -2.999976e+06
 c111: - 1e+06 B3(10) - 1e+06 B24(10) + 1e+06 B68(4) - C273(11) + C294(10)
   >= -1.999993e+06
 c112: - 1e+06 B4(22) - 1e+06 B25(22) - 1e+06 B68(4) + C274(23) - C295(22)
   >= -2.999982e+06
 c113: - 1e+06 B4(22) - 1e+06 B25(22) + 1e+06 B68(4) - C274(23) + C295(22)
   >= -1.999986e+06
 c114: - 1e+06 B4(22) - 1e+06 B27(21) - 1e+06 B69(2) + C274(23) - C297(23)
   >= -2.999994e+06
 c115: - 1e+06 B4(22) - 1e+06 B27(21) + 1e+06 B69(2) - C274(23) + C297(23)
   >= -1.999986e+06
 c116: - 1e+06 B3(10) - 1e+06 B30(10) - 1e+06 B70(4) + C273(11) - C300(11)
   >= -2.999993e+06
 c117: - 1e+06 B3(10) - 1e+06 B30(10) + 1e+06 B70(4) - C273(11) + C300(11)
   >= -1.999983e+06
 c118: - 1e+06 B5(20) - 1e+06 B32(20) - 1e+06 B70(4) + C275(21) - C302(21)
   >= -2.999971e+06
 c119: - 1e+06 B5(20) - 1e+06 B32(20) + 1e+06 B70(4) - C275(21) + C302(21)
   >= -1.999991e+06
 c120: - 1e+06 B4(22) - 1e+06 B33(22) - 1e+06 B71(2) + C274(23) - C303(22)
   >= -2.999993e+06
 c121: - 1e+06 B4(22) - 1e+06 B33(22) + 1e+06 B71(2) - C274(23) + C303(22)
   >= -1.999992e+06
 c122: - 1e+06 B5(20) - 1e+06 B37(24) - 1e+06 B72(2) + C275(21) - C307(25)
   >= -2.999988e+06
 c123: - 1e+06 B5(20) - 1e+06 B37(24) + 1e+06 B72(2) - C275(21) + C307(25)
   >= -1.999983e+06
 c124: - 1e+06 B5(20) - 1e+06 B40(23) - 1e+06 B73(2) + C275(21) - C310(25)
   >= -2.999988e+06
 c125: - 1e+06 B5(20) - 1e+06 B40(23) + 1e+06 B73(2) - C275(21) + C310(25)
   >= -1.99999e+06
 c126: - 1e+06 B4(22) - 1e+06 B42(19) - 1e+06 B74(4) + C274(23) - C312(20)
   >= -2.999987e+06
 c127: - 1e+06 B4(22) - 1e+06 B42(19) + 1e+06 B74(4) - C274(23) + C312(20)
   >= -1.999994e+06
 c128: - 1e+06 B5(20) - 1e+06 B43(23) - 1e+06 B74(4) + C275(21) - C313(24)
   >= -2.999986e+06
 c129: - 1e+06 B5(20) - 1e+06 B43(23) + 1e+06 B74(4) - C275(21) + C313(24)
   >= -1.999975e+06
 c130: - 1e+06 B0(16) - 1e+06 B7(15) - 1e+06 B75(4) - C270(17) + C277(16)
   >= -2.999978e+06
 c131: - 1e+06 B0(16) - 1e+06 B7(15) + 1e+06 B75(4) + C270(17) - C277(16)
   >= -1.999976e+06
 c132: - 1e+06 B2(18) - 1e+06 B8(17) - 1e+06 B75(4) - C272(19) + C278(18)
   >= -2.999978e+06
 c133: - 1e+06 B2(18) - 1e+06 B8(17) + 1e+06 B75(4) + C272(19) - C278(18)
   >= -1.999982e+06
 c134: - 1e+06 B4(22) - 1e+06 B6(21) - 1e+06 B76(2) - C274(23) + C276(22)
   >= -2.999993e+06
 c135: - 1e+06 B4(22) - 1e+06 B6(21) + 1e+06 B76(2) + C274(23) - C276(22)
   >= -1.999987e+06
 c136: - 1e+06 B6(21) - 1e+06 B9(22) - 1e+06 B78(4) + C276(22) - C279(23)
   >= -2.999992e+06
 c137: - 1e+06 B6(21) - 1e+06 B9(22) + 1e+06 B78(4) - C276(22) + C279(23)
   >= -1.999976e+06
 c138: - 1e+06 B7(15) - 1e+06 B10(14) - 1e+06 B78(4) + C277(16) - C280(15)
   >= -2.999986e+06
 c139: - 1e+06 B7(15) - 1e+06 B10(14) + 1e+06 B78(4) - C277(16) + C280(15)
   >= -1.99999e+06
 c140: - 1e+06 B8(17) - 1e+06 B14(16) - 1e+06 B79(2) + C278(18) - C284(16)
   >= -2.999975e+06
 c141: - 1e+06 B8(17) - 1e+06 B14(16) + 1e+06 B79(2) - C278(18) + C284(16)
   >= -1.999981e+06
 c142: - 1e+06 B6(21) - 1e+06 B17(22) - 1e+06 B80(2) + C276(22) - C287(23)
   >= -2.999994e+06
 c143: - 1e+06 B6(21) - 1e+06 B17(22) + 1e+06 B80(2) - C276(22) + C287(23)
   >= -1.999976e+06
 c144: - 1e+06 B6(21) - 1e+06 B18(22) - 1e+06 B81(4) + C276(22) - C288(23)
   >= -2.999978e+06
 c145: - 1e+06 B6(21) - 1e+06 B18(22) + 1e+06 B81(4) - C276(22) + C288(23)
   >= -1.999987e+06
 c146: - 1e+06 B8(17) - 1e+06 B20(16) - 1e+06 B81(4) + C278(18) - C290(17)
   >= -2.999981e+06
 c147: - 1e+06 B8(17) - 1e+06 B20(16) + 1e+06 B81(4) - C278(18) + C290(17)
   >= -1.999982e+06
 c148: - 1e+06 B6(21) - 1e+06 B25(22) - 1e+06 B83(2) + C276(22) - C295(22)
   >= -2.999995e+06
 c149: - 1e+06 B6(21) - 1e+06 B25(22) + 1e+06 B83(2) - C276(22) + C295(22)
   >= -1.999988e+06
 c150: - 1e+06 B6(21) - 1e+06 B27(21) - 1e+06 B84(4) + C276(22) - C297(23)
   >= -2.999984e+06
 c151: - 1e+06 B6(21) - 1e+06 B27(21) + 1e+06 B84(4) - C276(22) + C297(23)
   >= -1.999993e+06
 c152: - 1e+06 B8(17) - 1e+06 B29(17) - 1e+06 B84(4) + C278(18) - C299(19)
   >= -2.999996e+06
 c153: - 1e+06 B8(17) - 1e+06 B29(17) + 1e+06 B84(4) - C278(18) + C299(19)
   >= -1.999988e+06
 c154: - 1e+06 B7(15) - 1e+06 B31(16) - 1e+06 B85(2) + C277(16) - C301(17)
   >= -2.999977e+06
 c155: - 1e+06 B7(15) - 1e+06 B31(16) + 1e+06 B85(2) - C277(16) + C301(17)
   >= -1.99999e+06
 c156: - 1e+06 B6(21) - 1e+06 B33(22) - 1e+06 B86(6) + C276(22) - C303(22)
   >= -2.999993e+06
 c157: - 1e+06 B6(21) - 1e+06 B33(22) + 1e+06 B86(6) - C276(22) + C303(22)
   >= -1.999976e+06
 c158: - 1e+06 B7(15) - 1e+06 B34(16) - 1e+06 B86(6) + C277(16) - C304(16)
   >= -2.999993e+06
 c159: - 1e+06 B7(15) - 1e+06 B34(16) + 1e+06 B86(6) - C277(16) + C304(16)
   >= -1.999971e+06
 c160: - 1e+06 B8(17) - 1e+06 B35(18) - 1e+06 B86(6) + C278(18) - C305(18)
   >= -2.999992e+06
 c161: - 1e+06 B8(17) - 1e+06 B35(18) + 1e+06 B86(6) - C278(18) + C305(18)
   >= -1.999992e+06
 c162: - 1e+06 B7(15) - 1e+06 B39(13) - 1e+06 B88(2) + C277(16) - C309(15)
   >= -2.999985e+06
 c163: - 1e+06 B7(15) - 1e+06 B39(13) + 1e+06 B88(2) - C277(16) + C309(15)
   >= -1.999971e+06
 c164: - 1e+06 B6(21) - 1e+06 B42(19) - 1e+06 B89(4) + C276(22) - C312(20)
   >= -2.999986e+06
 c165: - 1e+06 B6(21) - 1e+06 B42(19) + 1e+06 B89(4) - C276(22) + C312(20)
   >= -1.999993e+06
 c166: - 1e+06 B8(17) - 1e+06 B44(15) - 1e+06 B89(4) + C278(18) - C314(16)
   >= -2.999988e+06
 c167: - 1e+06 B8(17) - 1e+06 B44(15) + 1e+06 B89(4) - C278(18) + C314(16)
   >= -1.999989e+06
 c168: - 1e+06 B11(22) - 1e+06 B13(22) - 1e+06 B94(2) + C281(23) - C283(22)
   >= -2.999991e+06
 c169: - 1e+06 B11(22) - 1e+06 B13(22) + 1e+06 B94(2) - C281(23) + C283(22)
   >= -1.999993e+06
 c170: - 1e+06 B9(22) - 1e+06 B17(22) - 1e+06 B95(2) + C279(23) - C287(23)
   >= -2.999983e+06
 c171: - 1e+06 B9(22) - 1e+06 B17(22) + 1e+06 B95(2) - C279(23) + C287(23)
   >= -1.999977e+06
 c172: - 1e+06 B9(22) - 1e+06 B18(22) - 1e+06 B96(4) + C279(23) - C288(23)
   >= -2.99999e+06
 c173: - 1e+06 B9(22) - 1e+06 B18(22) + 1e+06 B96(4) - C279(23) + C288(23)
   >= -1.999991e+06
 c174: - 1e+06 B11(22) - 1e+06 B19(22) - 1e+06 B96(4) + C281(23) - C289(23)
   >= -2.999986e+06
 c175: - 1e+06 B11(22) - 1e+06 B19(22) + 1e+06 B96(4) - C281(23) + C289(23)
   >= -1.999993e+06
 c176: - 1e+06 B11(22) - 1e+06 B22(21) - 1e+06 B97(2) + C281(23) - C292(23)
   >= -2.999986e+06
 c177: - 1e+06 B11(22) - 1e+06 B22(21) + 1e+06 B97(2) - C281(23) + C292(23)
   >= -1.999995e+06
 c178: - 1e+06 B9(22) - 1e+06 B25(22) - 1e+06 B98(2) + C279(23) - C295(22)
   >= -2.999989e+06
 c179: - 1e+06 B9(22) - 1e+06 B25(22) + 1e+06 B98(2) - C279(23) + C295(22)
   >= -1.999993e+06
 c180: - 1e+06 B9(22) - 1e+06 B27(21) - 1e+06 B99(2) + C279(23) - C297(23)
   >= -2.999981e+06
 c181: - 1e+06 B9(22) - 1e+06 B27(21) + 1e+06 B99(2) - C279(23) + C297(23)
   >= -1.999982e+06
 c182: - 1e+06 B10(14) - 1e+06 B31(16) - 1e+06 B100(4) + C280(15)
   - C301(17) >= -2.999994e+06
 c183: - 1e+06 B10(14) - 1e+06 B31(16) + 1e+06 B100(4) - C280(15)
   + C301(17) >= -1.999986e+06
 c184: - 1e+06 B11(22) - 1e+06 B32(20) - 1e+06 B100(4) + C281(23)
   - C302(21) >= -2.999976e+06
 c185: - 1e+06 B11(22) - 1e+06 B32(20) + 1e+06 B100(4) - C281(23)
   + C302(21) >= -1.999993e+06
 c186: - 1e+06 B9(22) - 1e+06 B33(22) - 1e+06 B101(4) + C279(23) - C303(22)
   >= -2.999982e+06
 c187: - 1e+06 B9(22) - 1e+06 B33(22) + 1e+06 B101(4) - C279(23) + C303(22)
   >= -1.999977e+06
 c188: - 1e+06 B10(14) - 1e+06 B34(16) - 1e+06 B101(4) + C280(15)
   - C304(16) >= -2.999991e+06
 c189: - 1e+06 B10(14) - 1e+06 B34(16) + 1e+06 B101(4) - C280(15)
   + C304(16) >= -1.999996e+06
 c190: - 1e+06 B11(22) - 1e+06 B37(24) - 1e+06 B102(2) + C281(23)
   - C307(25) >= -2.999992e+06
 c191: - 1e+06 B11(22) - 1e+06 B37(24) + 1e+06 B102(2) - C281(23)
   + C307(25) >= -1.999982e+06
 c192: - 1e+06 B10(14) - 1e+06 B39(13) - 1e+06 B103(4) + C280(15)
   - C309(15) >= -2.999987e+06
 c193: - 1e+06 B10(14) - 1e+06 B39(13) + 1e+06 B103(4) - C280(15)
   + C309(15) >= -1.999994e+06
 c194: - 1e+06 B11(22) - 1e+06 B40(23) - 1e+06 B103(4) + C281(23)
   - C310(25) >= -2.999989e+06
 c195: - 1e+06 B11(22) - 1e+06 B40(23) + 1e+06 B103(4) - C281(23)
   + C310(25) >= -1.999989e+06
 c196: - 1e+06 B9(22) - 1e+06 B42(19) - 1e+06 B104(4) + C279(23) - C312(20)
   >= -2.999993e+06
 c197: - 1e+06 B9(22) - 1e+06 B42(19) + 1e+06 B104(4) - C279(23) + C312(20)
   >= -1.999994e+06
 c198: - 1e+06 B11(22) - 1e+06 B43(23) - 1e+06 B104(4) + C281(23)
   - C313(24) >= -2.999986e+06
 c199: - 1e+06 B11(22) - 1e+06 B43(23) + 1e+06 B104(4) - C281(23)
   + C313(24) >= -1.999991e+06
 c200: - 1e+06 B11(22) - 1e+06 B13(22) - 1e+06 B108(2) - C281(23)
   + C283(22) >= -2.999993e+06
 c201: - 1e+06 B11(22) - 1e+06 B13(22) + 1e+06 B108(2) + C281(23)
   - C283(22) >= -1.999991e+06
 c202: - 1e+06 B12(12) - 1e+06 B16(12) - 1e+06 B110(2) + C282(12)
   - C286(13) >= -2.999986e+06
 c203: - 1e+06 B12(12) - 1e+06 B16(12) + 1e+06 B110(2) - C282(12)
   + C286(13) >= -1.999987e+06
 c204: - 1e+06 B13(22) - 1e+06 B19(22) - 1e+06 B111(4) + C283(22)
   - C289(23) >= -2.999986e+06
 c205: - 1e+06 B13(22) - 1e+06 B19(22) + 1e+06 B111(4) - C283(22)
   + C289(23) >= -1.999977e+06
 c206: - 1e+06 B14(16) - 1e+06 B20(16) - 1e+06 B111(4) + C284(16)
   - C290(17) >= -2.999984e+06
 c207: - 1e+06 B14(16) - 1e+06 B20(16) + 1e+06 B111(4) - C284(16)
   + C290(17) >= -1.999992e+06
 c208: - 1e+06 B12(12) - 1e+06 B21(9) - 1e+06 B112(4) + C282(12) - C291(11)
   >= -2.999993e+06
 c209: - 1e+06 B12(12) - 1e+06 B21(9) + 1e+06 B112(4) - C282(12) + C291(11)
   >= -1.999989e+06
 c210: - 1e+06 B13(22) - 1e+06 B22(21) - 1e+06 B112(4) + C283(22)
   - C292(23) >= -2.999989e+06
 c211: - 1e+06 B13(22) - 1e+06 B22(21) + 1e+06 B112(4) - C283(22)
   + C292(23) >= -1.999985e+06
 c212: - 1e+06 B14(16) - 1e+06 B29(17) - 1e+06 B114(2) + C284(16)
   - C299(19) >= -2.999992e+06
 c213: - 1e+06 B14(16) - 1e+06 B29(17) + 1e+06 B114(2) - C284(16)
   + C299(19) >= -1.999989e+06
 c214: - 1e+06 B13(22) - 1e+06 B32(20) - 1e+06 B115(2) + C283(22)
   - C302(21) >= -2.999994e+06
 c215: - 1e+06 B13(22) - 1e+06 B32(20) + 1e+06 B115(2) - C283(22)
   + C302(21) >= -1.999991e+06
 c216: - 1e+06 B14(16) - 1e+06 B35(18) - 1e+06 B116(2) + C284(16)
   - C305(18) >= -2.99999e+06
 c217: - 1e+06 B14(16) - 1e+06 B35(18) + 1e+06 B116(2) - C284(16)
   + C305(18) >= -1.999991e+06
 c218: - 1e+06 B12(12) - 1e+06 B36(10) - 1e+06 B117(4) + C282(12)
   - C306(11) >= -2.99999e+06
 c219: - 1e+06 B12(12) - 1e+06 B36(10) + 1e+06 B117(4) - C282(12)
   + C306(11) >= -1.999991e+06
 c220: - 1e+06 B13(22) - 1e+06 B37(24) - 1e+06 B117(4) + C283(22)
   - C307(25) >= -2.999993e+06
 c221: - 1e+06 B13(22) - 1e+06 B37(24) + 1e+06 B117(4) - C283(22)
   + C307(25) >= -1.999977e+06
 c222: - 1e+06 B13(22) - 1e+06 B40(23) - 1e+06 B118(2) + C283(22)
   - C310(25) >= -2.999983e+06
 c223: - 1e+06 B13(22) - 1e+06 B40(23) + 1e+06 B118(2) - C283(22)
   + C310(25) >= -1.999982e+06
 c224: - 1e+06 B13(22) - 1e+06 B43(23) - 1e+06 B119(4) + C283(22)
   - C313(24) >= -2.999978e+06
 c225: - 1e+06 B13(22) - 1e+06 B43(23) + 1e+06 B119(4) - C283(22)
   + C313(24) >= -1.999982e+06
 c226: - 1e+06 B14(16) - 1e+06 B44(15) - 1e+06 B119(4) + C284(16)
   - C314(16) >= -2.999995e+06
 c227: - 1e+06 B14(16) - 1e+06 B44(15) + 1e+06 B119(4) - C284(16)
   + C314(16) >= -1.999989e+06
 c228: - 1e+06 B9(22) - 1e+06 B17(22) - 1e+06 B123(2) - C279(23) + C287(23)
   >= -2.999977e+06
 c229: - 1e+06 B9(22) - 1e+06 B17(22) + 1e+06 B123(2) + C279(23) - C287(23)
   >= -1.999983e+06
 c230: - 1e+06 B12(12) - 1e+06 B16(12) - 1e+06 B124(2) - C282(12)
   + C286(13) >= -2.999987e+06
 c231: - 1e+06 B12(12) - 1e+06 B16(12) + 1e+06 B124(2) + C282(12)
   - C286(13) >= -1.999986e+06
 c232: - 1e+06 B17(22) - 1e+06 B18(22) - 1e+06 B126(2) + C287(23)
   - C288(23) >= -2.999992e+06
 c233: - 1e+06 B17(22) - 1e+06 B18(22) + 1e+06 B126(2) - C287(23)
   + C288(23) >= -1.999992e+06
 c234: - 1e+06 B16(12) - 1e+06 B21(9) - 1e+06 B127(2) + C286(13) - C291(11)
   >= -2.99998e+06
 c235: - 1e+06 B16(12) - 1e+06 B21(9) + 1e+06 B127(2) - C286(13) + C291(11)
   >= -1.99999e+06
 c236: - 1e+06 B15(10) - 1e+06 B24(10) - 1e+06 B128(4) + C285(11)
   - C294(10) >= -2.999976e+06
 c237: - 1e+06 B15(10) - 1e+06 B24(10) + 1e+06 B128(4) - C285(11)
   + C294(10) >= -1.999976e+06
 c238: - 1e+06 B17(22) - 1e+06 B25(22) - 1e+06 B128(4) + C287(23)
   - C295(22) >= -2.999991e+06
 c239: - 1e+06 B17(22) - 1e+06 B25(22) + 1e+06 B128(4) - C287(23)
   + C295(22) >= -1.999994e+06
 c240: - 1e+06 B17(22) - 1e+06 B27(21) - 1e+06 B129(2) + C287(23)
   - C297(23) >= -2.999976e+06
 c241: - 1e+06 B17(22) - 1e+06 B27(21) + 1e+06 B129(2) - C287(23)
   + C297(23) >= -1.999989e+06
 c242: - 1e+06 B15(10) - 1e+06 B30(10) - 1e+06 B130(2) + C285(11)
   - C300(11) >= -2.999989e+06
 c243: - 1e+06 B15(10) - 1e+06 B30(10) + 1e+06 B130(2) - C285(11)
   + C300(11) >= -1.999986e+06
 c244: - 1e+06 B17(22) - 1e+06 B33(22) - 1e+06 B131(2) + C287(23)
   - C303(22) >= -2.999981e+06
 c245: - 1e+06 B17(22) - 1e+06 B33(22) + 1e+06 B131(2) - C287(23)
   + C303(22) >= -1.999996e+06
 c246: - 1e+06 B16(12) - 1e+06 B36(10) - 1e+06 B132(2) + C286(13)
   - C306(11) >= -2.999982e+06
 c247: - 1e+06 B16(12) - 1e+06 B36(10) + 1e+06 B132(2) - C286(13)
   + C306(11) >= -1.999995e+06
 c248: - 1e+06 B17(22) - 1e+06 B42(19) - 1e+06 B134(2) + C287(23)
   - C312(20) >= -2.999991e+06
 c249: - 1e+06 B17(22) - 1e+06 B42(19) + 1e+06 B134(2) - C287(23)
   + C312(20) >= -1.999994e+06
 c250: - 1e+06 B19(22) - 1e+06 B22(21) - 1e+06 B142(2) + C289(23)
   - C292(23) >= -2.99999e+06
 c251: - 1e+06 B19(22) - 1e+06 B22(21) + 1e+06 B142(2) - C289(23)
   + C292(23) >= -1.999975e+06
 c252: - 1e+06 B18(22) - 1e+06 B25(22) - 1e+06 B143(2) + C288(23)
   - C295(22) >= -2.999981e+06
 c253: - 1e+06 B18(22) - 1e+06 B25(22) + 1e+06 B143(2) - C288(23)
   + C295(22) >= -1.999989e+06
 c254: - 1e+06 B18(22) - 1e+06 B27(21) - 1e+06 B144(4) + C288(23)
   - C297(23) >= -2.999986e+06
 c255: - 1e+06 B18(22) - 1e+06 B27(21) + 1e+06 B144(4) - C288(23)
   + C297(23) >= -1.999995e+06
 c256: - 1e+06 B20(16) - 1e+06 B29(17) - 1e+06 B144(4) + C290(17)
   - C299(19) >= -2.99999e+06
 c257: - 1e+06 B20(16) - 1e+06 B29(17) + 1e+06 B144(4) - C290(17)
   + C299(19) >= -1.999981e+06
 c258: - 1e+06 B19(22) - 1e+06 B32(20) - 1e+06 B145(2) + C289(23)
   - C302(21) >= -2.999991e+06
 c259: - 1e+06 B19(22) - 1e+06 B32(20) + 1e+06 B145(2) - C289(23)
   + C302(21) >= -1.999992e+06
 c260: - 1e+06 B18(22) - 1e+06 B33(22) - 1e+06 B146(4) + C288(23)
   - C303(22) >= -2.999988e+06
 c261: - 1e+06 B18(22) - 1e+06 B33(22) + 1e+06 B146(4) - C288(23)
   + C303(22) >= -1.999978e+06
 c262: - 1e+06 B20(16) - 1e+06 B35(18) - 1e+06 B146(4) + C290(17)
   - C305(18) >= -2.999995e+06
 c263: - 1e+06 B20(16) - 1e+06 B35(18) + 1e+06 B146(4) - C290(17)
   + C305(18) >= -1.999987e+06
 c264: - 1e+06 B19(22) - 1e+06 B37(24) - 1e+06 B147(2) + C289(23)
   - C307(25) >= -2.999971e+06
 c265: - 1e+06 B19(22) - 1e+06 B37(24) + 1e+06 B147(2) - C289(23)
   + C307(25) >= -1.99999e+06
 c266: - 1e+06 B19(22) - 1e+06 B40(23) - 1e+06 B148(2) + C289(23)
   - C310(25) >= -2.999993e+06
 c267: - 1e+06 B19(22) - 1e+06 B40(23) + 1e+06 B148(2) - C289(23)
   + C310(25) >= -1.999985e+06
 c268: - 1e+06 B18(22) - 1e+06 B42(19) - 1e+06 B149(6) + C288(23)
   - C312(20) >= -2.999979e+06
 c269: - 1e+06 B18(22) - 1e+06 B42(19) + 1e+06 B149(6) - C288(23)
   + C312(20) >= -1.999978e+06
 c270: - 1e+06 B19(22) - 1e+06 B43(23) - 1e+06 B149(6) + C289(23)
   - C313(24) >= -2.999989e+06
 c271: - 1e+06 B19(22) - 1e+06 B43(23) + 1e+06 B149(6) - C289(23)
   + C313(24) >= -1.99998e+06
 c272: - 1e+06 B20(16) - 1e+06 B44(15) - 1e+06 B149(6) + C290(17)
   - C314(16) >= -2.999983e+06
 c273: - 1e+06 B20(16) - 1e+06 B44(15) + 1e+06 B149(6) - C290(17)
   + C314(16) >= -1.999984e+06
 c274: - 1e+06 B19(22) - 1e+06 B22(21) - 1e+06 B156(2) - C289(23)
   + C292(23) >= -2.999975e+06
 c275: - 1e+06 B19(22) - 1e+06 B22(21) + 1e+06 B156(2) + C289(23)
   - C292(23) >= -1.99999e+06
 c276: - 1e+06 B23(15) - 1e+06 B26(16) - 1e+06 B158(2) + C293(17)
   - C296(16) >= -2.99998e+06
 c277: - 1e+06 B23(15) - 1e+06 B26(16) + 1e+06 B158(2) - C293(17)
   + C296(16) >= -1.99999e+06
 c278: - 1e+06 B23(15) - 1e+06 B28(13) - 1e+06 B159(2) + C293(17)
   - C298(15) >= -2.99999e+06
 c279: - 1e+06 B23(15) - 1e+06 B28(13) + 1e+06 B159(2) - C293(17)
   + C298(15) >= -1.99998e+06
 c280: - 1e+06 B22(21) - 1e+06 B32(20) - 1e+06 B160(2) + C292(23)
   - C302(21) >= -2.999992e+06
 c281: - 1e+06 B22(21) - 1e+06 B32(20) + 1e+06 B160(2) - C292(23)
   + C302(21) >= -1.999992e+06
 c282: - 1e+06 B21(9) - 1e+06 B36(10) - 1e+06 B162(6) + C291(11) - C306(11)
   >= -2.999988e+06
 c283: - 1e+06 B21(9) - 1e+06 B36(10) + 1e+06 B162(6) - C291(11) + C306(11)
   >= -1.99998e+06
 c284: - 1e+06 B22(21) - 1e+06 B37(24) - 1e+06 B162(6) + C292(23)
   - C307(25) >= -2.999984e+06
 c285: - 1e+06 B22(21) - 1e+06 B37(24) + 1e+06 B162(6) - C292(23)
   + C307(25) >= -1.999973e+06
 c286: - 1e+06 B23(15) - 1e+06 B38(16) - 1e+06 B162(6) + C293(17)
   - C308(17) >= -2.999992e+06
 c287: - 1e+06 B23(15) - 1e+06 B38(16) + 1e+06 B162(6) - C293(17)
   + C308(17) >= -1.999986e+06
 c288: - 1e+06 B22(21) - 1e+06 B40(23) - 1e+06 B163(4) + C292(23)
   - C310(25) >= -2.99999e+06
 c289: - 1e+06 B22(21) - 1e+06 B40(23) + 1e+06 B163(4) - C292(23)
   + C310(25) >= -1.999988e+06
 c290: - 1e+06 B23(15) - 1e+06 B41(15) - 1e+06 B163(4) + C293(17)
   - C311(17) >= -2.999992e+06
 c291: - 1e+06 B23(15) - 1e+06 B41(15) + 1e+06 B163(4) - C293(17)
   + C311(17) >= -1.999986e+06
 c292: - 1e+06 B22(21) - 1e+06 B43(23) - 1e+06 B164(2) + C292(23)
   - C313(24) >= -2.999988e+06
 c293: - 1e+06 B22(21) - 1e+06 B43(23) + 1e+06 B164(2) - C292(23)
   + C313(24) >= -1.999986e+06
 c294: - 1e+06 B18(22) - 1e+06 B25(22) - 1e+06 B171(2) - C288(23)
   + C295(22) >= -2.999989e+06
 c295: - 1e+06 B18(22) - 1e+06 B25(22) + 1e+06 B171(2) + C288(23)
   - C295(22) >= -1.999981e+06
 c296: - 1e+06 B23(15) - 1e+06 B26(16) - 1e+06 B172(2) - C293(17)
   + C296(16) >= -2.99999e+06
 c297: - 1e+06 B23(15) - 1e+06 B26(16) + 1e+06 B172(2) + C293(17)
   - C296(16) >= -1.99998e+06
 c298: - 1e+06 B25(22) - 1e+06 B27(21) - 1e+06 B174(4) + C295(22)
   - C297(23) >= -2.999976e+06
 c299: - 1e+06 B25(22) - 1e+06 B27(21) + 1e+06 B174(4) - C295(22)
   + C297(23) >= -1.999985e+06
 c300: - 1e+06 B26(16) - 1e+06 B28(13) - 1e+06 B174(4) + C296(16)
   - C298(15) >= -2.999991e+06
 c301: - 1e+06 B26(16) - 1e+06 B28(13) + 1e+06 B174(4) - C296(16)
   + C298(15) >= -1.999993e+06
 c302: - 1e+06 B24(10) - 1e+06 B30(10) - 1e+06 B175(2) + C294(10)
   - C300(11) >= -2.999977e+06
 c303: - 1e+06 B24(10) - 1e+06 B30(10) + 1e+06 B175(2) - C294(10)
   + C300(11) >= -1.999976e+06
 c304: - 1e+06 B25(22) - 1e+06 B33(22) - 1e+06 B176(2) + C295(22)
   - C303(22) >= -2.999985e+06
 c305: - 1e+06 B25(22) - 1e+06 B33(22) + 1e+06 B176(2) - C295(22)
   + C303(22) >= -1.999987e+06
 c306: - 1e+06 B26(16) - 1e+06 B38(16) - 1e+06 B177(2) + C296(16)
   - C308(17) >= -2.999979e+06
 c307: - 1e+06 B26(16) - 1e+06 B38(16) + 1e+06 B177(2) - C296(16)
   + C308(17) >= -1.999985e+06
 c308: - 1e+06 B26(16) - 1e+06 B41(15) - 1e+06 B178(2) + C296(16)
   - C311(17) >= -2.999972e+06
 c309: - 1e+06 B26(16) - 1e+06 B41(15) + 1e+06 B178(2) - C296(16)
   + C311(17) >= -1.999987e+06
 c310: - 1e+06 B25(22) - 1e+06 B42(19) - 1e+06 B179(2) + C295(22)
   - C312(20) >= -2.999975e+06
 c311: - 1e+06 B25(22) - 1e+06 B42(19) + 1e+06 B179(2) - C295(22)
   + C312(20) >= -1.999989e+06
 c312: - 1e+06 B27(21) - 1e+06 B33(22) - 1e+06 B191(4) + C297(23)
   - C303(22) >= -2.999981e+06
 c313: - 1e+06 B27(21) - 1e+06 B33(22) + 1e+06 B191(4) - C297(23)
   + C303(22) >= -1.999991e+06
 c314: - 1e+06 B29(17) - 1e+06 B35(18) - 1e+06 B191(4) + C299(19)
   - C305(18) >= -2.999986e+06
 c315: - 1e+06 B29(17) - 1e+06 B35(18) + 1e+06 B191(4) - C299(19)
   + C305(18) >= -1.999982e+06
 c316: - 1e+06 B28(13) - 1e+06 B38(16) - 1e+06 B192(2) + C298(15)
   - C308(17) >= -2.999985e+06
 c317: - 1e+06 B28(13) - 1e+06 B38(16) + 1e+06 B192(2) - C298(15)
   + C308(17) >= -1.999985e+06
 c318: - 1e+06 B28(13) - 1e+06 B41(15) - 1e+06 B193(2) + C298(15)
   - C311(17) >= -2.999994e+06
 c319: - 1e+06 B28(13) - 1e+06 B41(15) + 1e+06 B193(2) - C298(15)
   + C311(17) >= -1.999989e+06
 c320: - 1e+06 B27(21) - 1e+06 B42(19) - 1e+06 B194(4) + C297(23)
   - C312(20) >= -2.999983e+06
 c321: - 1e+06 B27(21) - 1e+06 B42(19) + 1e+06 B194(4) - C297(23)
   + C312(20) >= -1.999994e+06
 c322: - 1e+06 B29(17) - 1e+06 B44(15) - 1e+06 B194(4) + C299(19)
   - C314(16) >= -2.999982e+06
 c323: - 1e+06 B29(17) - 1e+06 B44(15) + 1e+06 B194(4) - C299(19)
   + C314(16) >= -1.999982e+06
 c324: - 1e+06 B31(16) - 1e+06 B34(16) - 1e+06 B206(2) + C301(17)
   - C304(16) >= -2.999993e+06
 c325: - 1e+06 B31(16) - 1e+06 B34(16) + 1e+06 B206(2) - C301(17)
   + C304(16) >= -1.999991e+06
 c326: - 1e+06 B32(20) - 1e+06 B37(24) - 1e+06 B207(2) + C302(21)
   - C307(25) >= -2.999976e+06
 c327: - 1e+06 B32(20) - 1e+06 B37(24) + 1e+06 B207(2) - C302(21)
   + C307(25) >= -1.999992e+06
 c328: - 1e+06 B31(16) - 1e+06 B39(13) - 1e+06 B208(4) + C301(17)
   - C309(15) >= -2.999991e+06
 c329: - 1e+06 B31(16) - 1e+06 B39(13) + 1e+06 B208(4) - C301(17)
   + C309(15) >= -1.999993e+06
 c330: - 1e+06 B32(20) - 1e+06 B40(23) - 1e+06 B208(4) + C302(21)
   - C310(25) >= -2.999989e+06
 c331: - 1e+06 B32(20) - 1e+06 B40(23) + 1e+06 B208(4) - C302(21)
   + C310(25) >= -1.999987e+06
 c332: - 1e+06 B32(20) - 1e+06 B43(23) - 1e+06 B209(2) + C302(21)
   - C313(24) >= -2.999983e+06
 c333: - 1e+06 B32(20) - 1e+06 B43(23) + 1e+06 B209(2) - C302(21)
   + C313(24) >= -1.999993e+06
 c334: - 1e+06 B27(21) - 1e+06 B33(22) - 1e+06 B219(4) - C297(23)
   + C303(22) >= -2.999991e+06
 c335: - 1e+06 B27(21) - 1e+06 B33(22) + 1e+06 B219(4) + C297(23)
   - C303(22) >= -1.999981e+06
 c336: - 1e+06 B29(17) - 1e+06 B35(18) - 1e+06 B219(4) - C299(19)
   + C305(18) >= -2.999982e+06
 c337: - 1e+06 B29(17) - 1e+06 B35(18) + 1e+06 B219(4) + C299(19)
   - C305(18) >= -1.999986e+06
 c338: - 1e+06 B31(16) - 1e+06 B34(16) - 1e+06 B220(2) - C301(17)
   + C304(16) >= -2.999991e+06
 c339: - 1e+06 B31(16) - 1e+06 B34(16) + 1e+06 B220(2) + C301(17)
   - C304(16) >= -1.999993e+06
 c340: - 1e+06 B34(16) - 1e+06 B39(13) - 1e+06 B223(2) + C304(16)
   - C309(15) >= -2.999977e+06
 c341: - 1e+06 B34(16) - 1e+06 B39(13) + 1e+06 B223(2) - C304(16)
   + C309(15) >= -1.999989e+06
 c342: - 1e+06 B33(22) - 1e+06 B42(19) - 1e+06 B224(4) + C303(22)
   - C312(20) >= -2.999991e+06
 c343: - 1e+06 B33(22) - 1e+06 B42(19) + 1e+06 B224(4) - C303(22)
   + C312(20) >= -1.999982e+06
 c344: - 1e+06 B35(18) - 1e+06 B44(15) - 1e+06 B224(4) + C305(18)
   - C314(16) >= -2.999993e+06
 c345: - 1e+06 B35(18) - 1e+06 B44(15) + 1e+06 B224(4) - C305(18)
   + C314(16) >= -1.999992e+06
 c346: - 1e+06 B37(24) - 1e+06 B40(23) - 1e+06 B238(4) + C307(25)
   - C310(25) >= -2.999993e+06
 c347: - 1e+06 B37(24) - 1e+06 B40(23) + 1e+06 B238(4) - C307(25)
   + C310(25) >= -1.999981e+06
 c348: - 1e+06 B38(16) - 1e+06 B41(15) - 1e+06 B238(4) + C308(17)
   - C311(17) >= -2.999987e+06
 c349: - 1e+06 B38(16) - 1e+06 B41(15) + 1e+06 B238(4) - C308(17)
   + C311(17) >= -1.999992e+06
 c350: - 1e+06 B37(24) - 1e+06 B43(23) - 1e+06 B239(2) + C307(25)
   - C313(24) >= -2.999978e+06
 c351: - 1e+06 B37(24) - 1e+06 B43(23) + 1e+06 B239(2) - C307(25)
   + C313(24) >= -1.999992e+06
 c352: - 1e+06 B37(24) - 1e+06 B40(23) - 1e+06 B252(4) - C307(25)
   + C310(25) >= -2.999981e+06
 c353: - 1e+06 B37(24) - 1e+06 B40(23) + 1e+06 B252(4) + C307(25)
   - C310(25) >= -1.999993e+06
 c354: - 1e+06 B38(16) - 1e+06 B41(15) - 1e+06 B252(4) - C308(17)
   + C311(17) >= -2.999992e+06
 c355: - 1e+06 B38(16) - 1e+06 B41(15) + 1e+06 B252(4) + C308(17)
   - C311(17) >= -1.999987e+06
 c356: - 1e+06 B40(23) - 1e+06 B43(23) - 1e+06 B254(2) + C310(25)
   - C313(24) >= -2.99999e+06
 c357: - 1e+06 B40(23) - 1e+06 B43(23) + 1e+06 B254(2) - C310(25)
   + C313(24) >= -1.999983e+06
 c358: - 1e+06 B37(24) - 1e+06 B43(23) - 1e+06 B267(2) - C307(25)
   + C313(24) >= -2.999992e+06
 c359: - 1e+06 B37(24) - 1e+06 B43(23) + 1e+06 B267(2) + C307(25)
   - C313(24) >= -1.999978e+06
 c360: - 1e+06 B40(23) - 1e+06 B43(23) - 1e+06 B268(2) - C310(25)
   + C313(24) >= -2.999983e+06
 c361: - 1e+06 B40(23) - 1e+06 B43(23) + 1e+06 B268(2) + C310(25)
   - C313(24) >= -1.99999e+06
 c362: C270(17) >= 0
 c363: - 2 B0(16) + C270(17) >= 0
 c364: C271(15) >= 0
 c365: - 2 B1(14) + C271(15) >= 0
 c366: C272(19) >= 0
 c367: - 2 B2(18) + C272(19) >= 0
 c368: C273(11) >= 0
 c369: - 3 B3(10) + C273(11) >= 0
 c370: C274(23) >= 0
 c371: - 3 B4(22) + C274(23) >= 0
 c372: C275(21) >= 0
 c373: - 3 B5(20) + C275(21) >= 0
 c374: C276(22) >= 0
 c375: C276(22) >= 0
 c376: C277(16) >= 0
 c377: C277(16) >= 0
 c378: C278(18) >= 0
 c379: C278(18) >= 0
 c380: C279(23) >= 0
 c381: - 3 B9(22) + C279(23) >= 0
 c382: C280(15) >= 0
 c383: - 3 B10(14) + C280(15) >= 0
 c384: C281(23) >= 0
 c385: - 3 B11(22) + C281(23) >= 0
 c386: C282(12) >= 0
 c387: - 2 B12(12) + C282(12) >= 0
 c388: C283(22) >= 0
 c389: - 2 B13(22) + C283(22) >= 0
 c390: C284(16) >= 0
 c391: - 2 B14(16) + C284(16) >= 0
 c392: C285(11) >= 0
 c393: - B15(10) + C285(11) >= 0
 c394: C286(13) >= 0
 c395: - B16(12) + C286(13) >= 0
 c396: C287(23) >= 0
 c397: - B17(22) + C287(23) >= 0
 c398: C288(23) >= 0
 c399: - 3 B18(22) + C288(23) >= 0
 c400: C289(23) >= 0
 c401: - 3 B19(22) + C289(23) >= 0
 c402: C290(17) >= 0
 c403: - 3 B20(16) + C290(17) >= 0
 c404: C291(11) >= 0
 c405: C291(11) >= 0
 c406: C292(23) >= 0
 c407: C292(23) >= 0
 c408: C293(17) >= 0
 c409: C293(17) >= 0
 c410: C294(10) >= 0
 c411: - B24(10) + C294(10) >= 0
 c412: C295(22) >= 0
 c413: - B25(22) + C295(22) >= 0
 c414: C296(16) >= 0
 c415: - B26(16) + C296(16) >= 0
 c416: C297(23) >= 0
 c417: C297(23) >= 0
 c418: C298(15) >= 0
 c419: C298(15) >= 0
 c420: C299(19) >= 0
 c421: C299(19) >= 0
 c422: C300(11) >= 0
 c423: - 2 B30(10) + C300(11) >= 0
 c424: C301(17) >= 0
 c425: - 2 B31(16) + C301(17) >= 0
 c426: C302(21) >= 0
 c427: - 2 B32(20) + C302(21) >= 0
 c428: C303(22) >= 0
 c429: - 3 B33(22) + C303(22) >= 0
 c430: C304(16) >= 0
 c431: - 3 B34(16) + C304(16) >= 0
 c432: C305(18) >= 0
 c433: - 3 B35(18) + C305(18) >= 0
 c434: C306(11) >= 0
 c435: - 3 B36(10) + C306(11) >= 0
 c436: C307(25) >= 0
 c437: - 3 B37(24) + C307(25) >= 0
 c438: C308(17) >= 0
 c439: - 3 B38(16) + C308(17) >= 0
 c440: C309(15) >= 0
 c441: C309(15) >= 0
 c442: C310(25) >= 0
 c443: C310(25) >= 0
 c444: C311(17) >= 0
 c445: C311(17) >= 0
 c446: C312(20) >= 0
 c447: C312(20) >= 0
 c448: C313(24) >= 0
 c449: C313(24) >= 0
 c450: C314(16) >= 0
 c451: C314(16) >= 0
 c452: - 5 B3(10) - 2 B4(22) - 5 B5(20) + C270(17) + C271(15) + C272(19)
   - C273(11) - C274(23) - C275(21) >= 0
 c453: - 4 B6(21) - 4 B7(15) - 3 B8(17) + C273(11) + C274(23) + C275(21)
   - C276(22) - C277(16) - C278(18) >= 0
 c454: - 3 B12(12) - 3 B13(22) - 5 B14(16) - C282(12) - C283(22) - C284(16)
   + C285(11) + C286(13) + C287(23) >= 0
 c455: - 4 B15(10) - 2 B16(12) - 2 B17(22) + C279(23) + C280(15) + C281(23)
   - C285(11) - C286(13) - C287(23) >= 0
 c456: - 4 B21(9) - 2 B22(21) - 4 B23(15) + C288(23) + C289(23) + C290(17)
   - C291(11) - C292(23) - C293(17) >= 0
 c457: - 4 B24(10) - 3 B25(22) - 5 B26(16) + C291(11) + C292(23) + C293(17)
   - C294(10) - C295(22) - C296(16) >= 0
 c458: - 3 B30(10) - 3 B31(16) - 4 B32(20) + C297(23) + C298(15) + C299(19)
   - C300(11) - C301(17) - C302(21) >= 0
 c459: - 3 B33(22) - 3 B34(16) - 2 B35(18) + C300(11) + C301(17) + C302(21)
   - C303(22) - C304(16) - C305(18) >= 0
 c460: - 3 B39(13) - 2 B40(23) - 3 B41(15) + C306(11) + C307(25) + C308(17)
   - C309(15) - C310(25) - C311(17) >= 0
 c461: - 5 B42(19) - 2 B43(23) - 2 B44(15) + C309(15) + C310(25) + C311(17)
   - C312(20) - C313(24) - C314(16) >= 0
 c462: - 2 B0(16) - 2 B1(14) - 2 B2(18) - 3 B9(22) - 2 B10(14) - 3 B11(22)
   - 2 B18(22) - 5 B19(22) - 4 B20(16) - 4 B27(21) - 5 B28(13) - 2 B29(17)
   - 2 B36(10) - 4 B37(24) - 5 B38(16) - C270(17) - C271(15) - C272(19)
   - C279(23) - C280(15) - C281(23) - C288(23) - C289(23) - C290(17)
   - C297(23) - C298(15) - C299(19) - C306(11) - C307(25) - C308(17)
   + I315(1) >= 0
Bounds
Binaries
 B0(16) B1(14) B2(18) B3(10) B4(22) B5(20) B6(21) B7(15) B8(17) B9(22)
 B10(14) B11(22) B12(12) B13(22) B14(16) B15(10) B16(12) B17(22) B18(22)
 B19(22) B20(16) B21(9) B22(21) B23(15) B24(10) B25(22) B26(16) B27(21)
 B28(13) B29(17) B30(10) B31(16) B32(20) B33(22) B34(16) B35(18) B36(10)
 B37(24) B38(16) B39(13) B40(23) B41(15) B42(19) B43(23) B44(15) B45(0)
 B46(0) B47(4) B48(2) B49(2) B50(0) B51(2) B52(2) B53(2) B54(4) B55(2)
 B56(4) B57(2) B58(4) B59(2) B60(0) B61(0) B62(2) B63(4) B64(2) B65(4)
 B66(4) B67(2) B68(4) B69(2) B70(4) B71(2) B72(2) B73(2) B74(4) B75(4)
 B76(2) B77(0) B78(4) B79(2) B80(2) B81(4) B82(0) B83(2) B84(4) B85(2)
 B86(6) B87(0) B88(2) B89(4) B90(0) B91(0) B92(0) B93(0) B94(2) B95(2)
 B96(4) B97(2) B98(2) B99(2) B100(4) B101(4) B102(2) B103(4) B104(4)
 B105(0) B106(0) B107(0) B108(2) B109(0) B110(2) B111(4) B112(4) B113(0)
 B114(2) B115(2) B116(2) B117(4) B118(2) B119(4) B120(0) B121(0) B122(0)
 B123(2) B124(2) B125(0) B126(2) B127(2) B128(4) B129(2) B130(2) B131(2)
 B132(2) B133(0) B134(2) B135(0) B136(0) B137(0) B138(0) B139(0) B140(0)
 B141(0) B142(2) B143(2) B144(4) B145(2) B146(4) B147(2) B148(2) B149(6)
 B150(0) B151(0) B152(0) B153(0) B154(0) B155(0) B156(2) B157(0) B158(2)
 B159(2) B160(2) B161(0) B162(6) B163(4) B164(2) B165(0) B166(0) B167(0)
 B168(0) B169(0) B170(0) B171(2) B172(2) B173(0) B174(4) B175(2) B176(2)
 B177(2) B178(2) B179(2) B180(0) B181(0) B182(0) B183(0) B184(0) B185(0)
 B186(0) B187(0) B188(0) B189(0) B190(0) B191(4) B192(2) B193(2) B194(4)
 B195(0) B196(0) B197(0) B198(0) B199(0) B200(0) B201(0) B202(0) B203(0)
 B204(0) B205(0) B206(2) B207(2) B208(4) B209(2) B210(0) B211(0) B212(0)
 B213(0) B214(0) B215(0) B216(0) B217(0) B218(0) B219(4) B220(2) B221(0)
 B222(0) B223(2) B224(4) B225(0) B226(0) B227(0) B228(0) B229(0) B230(0)
 B231(0) B232(0) B233(0) B234(0) B235(0) B236(0) B237(0) B238(4) B239(2)
 B240(0) B241(0) B242(0) B243(0) B244(0) B245(0) B246(0) B247(0) B248(0)
 B249(0) B250(0) B251(0) B252(4) B253(0) B254(2) B255(0) B256(0) B257(0)
 B258(0) B259(0) B260(0) B261(0) B262(0) B263(0) B264(0) B265(0) B266(0)
 B267(2) B268(2) B269(0)
Generals
 I315(1)
End
